(declare-fun v2 () (_ BitVec 2))
(declare-fun v7 () (_ BitVec 5))
(assert
(let (($e3 (_ bv1 1)))
(let (($e8 (_ bv1  7)))
(let (($e297 (concat true  v7)))
(let (($e301 (concat false $e297)))
(let (($e302 (bvand        $e8         $e301 )))
(let (($e456 (concat v7  v2)))
(let (($e457 (bvand $e456 $e302)))
(let (($e676 (   extract      $e297)))
             (ite        $e676  $e457 $e302)
                                                                                                                                                                                                                                                                                                                                                                                                                                                                                                                                                                                                                                                                                                                                                                                                                                                                                                                                                                                                                                                                                                                                                                                                                                                                                                                                                                                                                                                                                                                                                                                                                                                                                                                                                                                                                                                                                                                                                                                                                                                                                                                                                                                                                                                                                                                                                                                                                                                                                                                                                                                                                                                                                                                                                                                                                                                                                                                                                                                                                                                                                                                                                                                                                                                                                                                                                                                                                                                                                                                                                                                                                                                                      )                                                                                                                                                                                                                          ))                                                                                                                                                         ))   )                                                                                                                                                                                                                                                                    )    )  )
